c File: instances/34_0.55_1.col
c
c Description: Random graph of size 34 vertices and P(0.5499999999999999) of edges between any two vertices.
p col 34 561
e 1 2
e 1 4
e 1 5
e 1 6
e 1 12
e 1 13
e 1 15
e 1 19
e 1 20
e 1 23
e 1 25
e 1 26
e 1 27
e 2 3
e 2 5
e 2 12
e 2 13
e 2 14
e 2 16
e 2 17
e 2 19
e 2 20
e 2 22
e 2 24
e 2 26
e 2 27
e 2 28
e 2 30
e 2 31
e 2 32
e 2 33
e 2 34
e 3 5
e 3 7
e 3 8
e 3 9
e 3 10
e 3 11
e 3 12
e 3 14
e 3 16
e 3 18
e 3 22
e 3 25
e 3 29
e 3 31
e 3 32
e 3 33
e 3 34
e 4 5
e 4 6
e 4 8
e 4 9
e 4 10
e 4 11
e 4 12
e 4 13
e 4 14
e 4 15
e 4 17
e 4 18
e 4 20
e 4 21
e 4 22
e 4 23
e 4 24
e 4 25
e 4 27
e 4 30
e 4 31
e 4 34
e 5 6
e 5 7
e 5 8
e 5 9
e 5 10
e 5 12
e 5 13
e 5 14
e 5 17
e 5 19
e 5 20
e 5 21
e 5 22
e 5 24
e 5 26
e 5 27
e 5 31
e 5 33
e 5 34
e 6 11
e 6 14
e 6 15
e 6 16
e 6 19
e 6 20
e 6 21
e 6 22
e 6 23
e 6 24
e 6 27
e 6 28
e 6 33
e 7 8
e 7 11
e 7 12
e 7 13
e 7 14
e 7 16
e 7 17
e 7 21
e 7 22
e 7 25
e 7 26
e 7 27
e 7 28
e 7 29
e 7 30
e 7 31
e 7 32
e 7 33
e 7 34
e 8 9
e 8 10
e 8 12
e 8 13
e 8 14
e 8 15
e 8 17
e 8 18
e 8 20
e 8 21
e 8 22
e 8 24
e 8 26
e 8 27
e 8 28
e 8 31
e 8 32
e 8 33
e 8 34
e 9 12
e 9 14
e 9 15
e 9 17
e 9 20
e 9 21
e 9 22
e 9 23
e 9 24
e 9 25
e 9 28
e 9 29
e 9 31
e 9 32
e 9 33
e 9 34
e 10 12
e 10 13
e 10 14
e 10 15
e 10 17
e 10 18
e 10 20
e 10 22
e 10 24
e 10 25
e 10 27
e 10 28
e 10 31
e 10 32
e 10 33
e 10 34
e 11 14
e 11 16
e 11 19
e 11 21
e 11 24
e 11 26
e 11 27
e 11 28
e 11 29
e 11 30
e 11 31
e 11 32
e 12 13
e 12 14
e 12 16
e 12 17
e 12 19
e 12 20
e 12 22
e 12 28
e 12 30
e 12 31
e 12 34
e 13 14
e 13 15
e 13 18
e 13 19
e 13 23
e 13 25
e 13 30
e 13 32
e 14 15
e 14 16
e 14 19
e 14 26
e 14 27
e 14 28
e 14 31
e 14 33
e 14 34
e 15 16
e 15 18
e 15 19
e 15 20
e 15 21
e 15 23
e 15 24
e 15 25
e 15 26
e 15 27
e 15 28
e 15 30
e 15 32
e 15 33
e 16 21
e 16 22
e 16 28
e 16 29
e 16 31
e 16 32
e 17 18
e 17 23
e 17 27
e 17 28
e 17 32
e 17 33
e 18 19
e 18 20
e 18 21
e 18 22
e 18 24
e 18 25
e 18 26
e 18 27
e 18 28
e 19 20
e 19 21
e 19 22
e 19 25
e 19 26
e 19 27
e 19 28
e 19 29
e 19 31
e 19 32
e 19 33
e 20 21
e 20 22
e 20 24
e 20 28
e 20 29
e 20 32
e 20 33
e 20 34
e 21 22
e 21 24
e 21 28
e 21 29
e 21 30
e 22 23
e 22 26
e 22 29
e 22 30
e 22 31
e 22 32
e 22 33
e 22 34
e 23 25
e 23 26
e 23 27
e 23 29
e 23 34
e 24 26
e 24 27
e 24 28
e 24 29
e 24 30
e 24 31
e 24 32
e 25 26
e 25 27
e 25 28
e 25 33
e 26 28
e 26 30
e 26 34
e 27 30
e 27 31
e 27 32
e 28 29
e 28 30
e 28 32
e 29 31
e 29 32
e 29 33
e 30 32
e 30 33
e 31 33
e 32 34